50 8
764 706
452 509
815 683
545 412
509 737
171 770
217 349
761 359
829 425
753 396
436 798
194 447
930 416
440 808
650 335
225 326
283 303
54 535
122 585
768 682
167 251
198 239
922 497
780 759
572 471
673 733
54 474
762 742
658 275
853 679
221 152
695 869
392 151
714 792
863 560
51 496
174 190
628 977
658 799
217 52
73 385
786 711
94 391
355 136
754 964
260 817
413 514
668 203
779 800
781 507
